flow=[(0,4,1)(0,6,3)(0,7,1)(0,8,2)(1,4,1)(1,5,1)(1,7,3)(1,10,1)(2,1,1)(2,5,1)(2,6,1)(2,7,1)(2,10,1)(3,6,5)(3,7,3)(3,8,1)(3,15,1)(4,1,1)(4,6,2)(4,7,2)(4,8,1)(4,10,1)(5,2,1)(5,4,1)(5,6,1)(5,9,1)(6,0,3)(6,4,1)(6,7,4)(6,9,1)(6,10,1)(6,11,2)(6,13,2)(6,14,1)(7,1,1)(7,10,2)(8,4,2)(8,11,2)(9,0,1)(9,4,3)(9,6,4)(9,7,4)(9,8,1)(9,10,1)(9,11,2)(9,12,1)(10,0,1)(10,5,1)(10,6,6)(10,7,1)(10,11,1)(11,0,1)(11,4,1)(11,5,1)(11,9,3)(11,14,1)(11,15,2)(13,4,1)(14,3,1)(14,5,1)(14,7,2)(15,11,1)(3,3,1)(6,6,2)(7,7,3)(8,8,2)(9,9,2)(10,10,3)];
